numOfMachines = 4;
numOfRobots = 2;
numOfJobs = 5;
maxOperations = 5;
operationsCount = [3,3,4,4,5];

operation = [
[<0,0,0>,<4,33,0>,<1,30,1>,<2,21,0 >],
[<0,0,0>,<3,36,0>,<2,30,0>,<4,24,0 >],
[<0,0,0>,<2,21,0>,<3,30,0>,<1,27,1>,<3,24,0 >],
[<0,0,0>,<2,21,0>,<4,24,0>,<1,36,0>,<2,18,0 >],
[<0,0,0>,<1,27,0>,<2,21,0>,<4,24,0>,<2,30,1>,<3,24,0>]
];
